
se = 80; % nombre de sessions
gr = 40; % nombre de grups de treball
cl = 12; % nombre de slots
minPapersPerSlot = 3; % minim nombre d'articles per sessio i slot
maxSesionsPar = 20; % maxim nombre de sessions paraleles

npMax = [5, 3, 6, 5, 6, 3, 3, 3, 5, 4, 3, 4]; % nombre maxim de papers per slot

np = [15, 5, 10, 3, 8, 6, 14, 3, 6, 13, 3, 6, 6, 19, 5, 3, 12, 7, 7, 5, 3, 4, 12, 13, 17, 10, 15, 7, 10, 16, 16, 6, 3, 4, 6, 10, 10, 3, 10, 11, 3, 3, 3, 5, 14, 11, 6, 16, 18, 18, 8, 18, 14, 7, 5, 3, 10, 3, 3, 16, 12, 10, 3, 8, 11, 6, 13, 4, 4, 15, 15, 3, 10, 14, 3, 14, 11, 6, 5, 7]; % nombre de papers acceptats a cada sessio

WG = [ {1}, {2}, {3}, {}, {}, {}, {4}, {}, {}, {}, {5}, {6}, {7}, {}, {}, {8,9,10}, {11}, {}, {12,13}, {}, {14,15}, {16}, {}, {17}, {}, {18,19}, {}, {20}, {21}, {22}, {23}, {24}, {25}, {26,27}, {28}, {}, {29,30}, {31}, {}, {32}, {33}, {}, {34}, {35}, {36}, {37}, {}, {38}, {}, {39}, {40,1,2}, {}, {3}, {4}, {5}, {6}, {7}, {8}, {}, {}, {9,10}, {11}, {}, {12,13,14}, {15,16}, {17}, {18,19,20}, {}, {}, {21}, {22,23,24}, {25}, {26,27}, {}, {28}, {29,30,31}, {}, {32}, {33,34}, {35,36,37} ]; % grups per sessio

